NAME: Instances/Nodes/35n_10s_15d_instance.tsp
COMMENT: Ben Desjardins (bdesj038@uottawa.ca)
DIMENSION: 35
SPARCITY: 10
%HOLES: 15.0%
EDGE_WEIGHT_TYPE: EUC_2D


NODE	X_LOC	Y_LOC	DEMAND	BATTERY
DATASTART
0	0	0	0	0
1	145	148	1	41
2	280	128	1	17
3	-106	337	1	11
4	-82	229	1	60
5	-20	-32	1	33
6	-14	-82	1	34
7	232	-43	1	75
8	-339	189	1	1
9	207	-101	1	83
10	436	338	1	82
11	26	217	1	90
12	-29	50	1	54
13	367	-145	1	42
14	-149	313	1	54
15	235	417	1	50
16	359	-204	1	35
17	83	87	1	56
18	165	-280	1	56
19	141	219	1	95
20	53	-380	1	91
21	-201	-203	1	18
22	-6	-456	1	77
23	-259	158	1	94
24	-342	76	1	59
25	-124	36	1	91
26	4	-208	1	59
27	-82	-355	1	10
28	212	181	1	25
29	232	148	1	94
EODATA
NODE	X_LOC	Y_LOC	DEMAND	DEGREE
HOLESTART
0	360	-480	-1	11
1	340	20	-1	12
2	200	-140	-1	12
3	80	40	-1	12
4	200	-20	-1	12
EOHOLE
EOF
